-428.0 4.0 10.0 8.0 4.0 3.0 7.0 10.0 7.0 0.0 0.0 5.0 0.0 1.0 6.0 7.0 0.0 2.0 9.0 4.0 3.0 8.0 10.0 1.0 0.0 3.0 4.0 6.0 4.0 2.0 7.0 6.0 4.0 1.0 3.0 0.0 2.0 3.0 10.0 9.0 6.0 3.0 10.0 10.0 0.0 1.0 0.0 0.0 6.0 2.0 0.0 1.0 3.0 6.0 10.0 4.0 7.0 8.0 5.0 7.0 2.0 1.0 7.0 9.0 8.0 4.0 6.0 8.0 6.0 9.0 8.0 3.0 4.0 8.0 4.0 7.0 1.0 3.0 8.0 9.0 6.0 8.0 6.0 2.0 5.0 7.0 2.0 4.0 10.0 1.0 
4.0 -445.0 10.0 5.0 10.0 8.0 8.0 2.0 5.0 3.0 1.0 5.0 9.0 10.0 9.0 6.0 2.0 5.0 2.0 7.0 3.0 9.0 8.0 1.0 4.0 9.0 10.0 9.0 9.0 3.0 5.0 1.0 1.0 10.0 1.0 5.0 2.0 8.0 2.0 2.0 8.0 4.0 1.0 8.0 10.0 7.0 10.0 9.0 8.0 9.0 5.0 2.0 8.0 1.0 2.0 4.0 4.0 6.0 9.0 7.0 5.0 1.0 10.0 5.0 2.0 8.0 7.0 1.0 10.0 8.0 10.0 6.0 1.0 5.0 2.0 6.0 4.0 10.0 5.0 4.0 0.0 0.0 0.0 0.0 0.0 0.0 0.0 0.0 0.0 0.0 
10.0 10.0 -418.0 5.0 1.0 1.0 6.0 7.0 9.0 1.0 1.0 9.0 3.0 10.0 2.0 3.0 9.0 0.0 0.0 1.0 7.0 6.0 7.0 2.0 0.0 9.0 6.0 2.0 0.0 9.0 5.0 6.0 7.0 1.0 5.0 9.0 4.0 2.0 6.0 10.0 6.0 9.0 6.0 7.0 4.0 3.0 0.0 3.0 3.0 7.0 0.0 8.0 9.0 7.0 8.0 0.0 4.0 10.0 1.0 3.0 5.0 4.0 4.0 5.0 3.0 9.0 2.0 1.0 7.0 2.0 0.0 9.0 0.0 0.0 6.0 10.0 1.0 4.0 4.0 5.0 3.0 7.0 2.0 8.0 7.0 1.0 10.0 2.0 3.0 5.0 
8.0 5.0 5.0 -418.0 6.0 8.0 9.0 4.0 3.0 5.0 0.0 1.0 8.0 9.0 7.0 6.0 8.0 7.0 4.0 4.0 0.0 5.0 4.0 2.0 5.0 0.0 2.0 5.0 10.0 1.0 1.0 3.0 4.0 5.0 8.0 2.0 9.0 5.0 3.0 2.0 9.0 10.0 0.0 4.0 7.0 2.0 10.0 0.0 5.0 1.0 3.0 10.0 9.0 0.0 5.0 10.0 0.0 10.0 8.0 5.0 7.0 5.0 6.0 0.0 7.0 4.0 0.0 1.0 9.0 9.0 8.0 8.0 0.0 6.0 2.0 9.0 9.0 5.0 4.0 2.0 6.0 2.0 2.0 1.0 0.0 6.0 2.0 0.0 6.0 1.0 
4.0 10.0 1.0 6.0 -438.0 6.0 2.0 5.0 8.0 7.0 7.0 0.0 2.0 7.0 9.0 5.0 9.0 4.0 0.0 5.0 4.0 5.0 8.0 7.0 0.0 2.0 1.0 8.0 3.0 1.0 8.0 3.0 3.0 1.0 0.0 6.0 9.0 0.0 9.0 2.0 6.0 10.0 7.0 5.0 8.0 3.0 4.0 2.0 10.0 0.0 9.0 10.0 0.0 8.0 2.0 8.0 5.0 1.0 8.0 6.0 6.0 10.0 3.0 4.0 5.0 9.0 6.0 7.0 4.0 4.0 9.0 2.0 0.0 8.0 1.0 5.0 8.0 3.0 2.0 4.0 7.0 7.0 1.0 4.0 7.0 3.0 0.0 7.0 10.0 3.0 
3.0 8.0 1.0 8.0 6.0 -435.0 5.0 0.0 5.0 4.0 1.0 1.0 5.0 9.0 3.0 8.0 6.0 10.0 4.0 1.0 4.0 10.0 1.0 5.0 1.0 4.0 4.0 3.0 2.0 10.0 7.0 1.0 7.0 2.0 8.0 10.0 1.0 5.0 4.0 4.0 1.0 3.0 0.0 3.0 2.0 4.0 5.0 5.0 2.0 8.0 6.0 7.0 8.0 4.0 4.0 8.0 10.0 3.0 8.0 10.0 4.0 6.0 0.0 8.0 4.0 10.0 0.0 4.0 2.0 10.0 2.0 6.0 3.0 3.0 6.0 5.0 9.0 7.0 10.0 0.0 2.0 0.0 8.0 10.0 10.0 2.0 5.0 3.0 4.0 10.0 
7.0 8.0 6.0 9.0 2.0 5.0 -424.0 8.0 6.0 8.0 8.0 6.0 1.0 4.0 2.0 6.0 4.0 2.0 0.0 6.0 1.0 0.0 3.0 9.0 10.0 9.0 5.0 5.0 10.0 3.0 3.0 4.0 2.0 9.0 9.0 3.0 1.0 2.0 2.0 1.0 5.0 7.0 3.0 2.0 10.0 1.0 3.0 0.0 3.0 10.0 2.0 10.0 9.0 5.0 3.0 5.0 4.0 0.0 2.0 8.0 2.0 6.0 7.0 8.0 1.0 0.0 3.0 8.0 9.0 1.0 6.0 6.0 2.0 10.0 9.0 2.0 8.0 10.0 3.0 8.0 1.0 7.0 6.0 6.0 0.0 3.0 0.0 6.0 3.0 2.0 
10.0 2.0 7.0 4.0 5.0 0.0 8.0 -427.0 8.0 7.0 7.0 2.0 10.0 6.0 10.0 7.0 2.0 4.0 2.0 8.0 1.0 10.0 0.0 7.0 8.0 3.0 2.0 0.0 0.0 4.0 1.0 1.0 7.0 10.0 3.0 7.0 0.0 6.0 3.0 2.0 2.0 6.0 7.0 8.0 2.0 1.0 2.0 8.0 10.0 2.0 5.0 4.0 6.0 7.0 3.0 6.0 10.0 5.0 5.0 1.0 4.0 1.0 8.0 5.0 0.0 5.0 7.0 7.0 8.0 1.0 9.0 0.0 2.0 4.0 5.0 7.0 0.0 5.0 2.0 9.0 9.0 7.0 2.0 10.0 4.0 4.0 7.0 3.0 5.0 3.0 
7.0 5.0 9.0 3.0 8.0 5.0 6.0 8.0 -469.0 4.0 7.0 6.0 0.0 7.0 6.0 2.0 2.0 1.0 10.0 7.0 2.0 3.0 1.0 5.0 8.0 10.0 3.0 7.0 2.0 8.0 5.0 8.0 0.0 4.0 9.0 10.0 8.0 7.0 5.0 1.0 3.0 3.0 2.0 2.0 7.0 3.0 9.0 6.0 2.0 9.0 1.0 0.0 5.0 6.0 6.0 3.0 2.0 2.0 10.0 3.0 4.0 1.0 4.0 5.0 9.0 2.0 4.0 9.0 8.0 9.0 3.0 3.0 5.0 5.0 10.0 8.0 0.0 5.0 8.0 10.0 8.0 9.0 10.0 9.0 7.0 1.0 9.0 0.0 3.0 8.0 
0.0 3.0 1.0 5.0 7.0 4.0 8.0 7.0 4.0 -485.0 7.0 3.0 6.0 8.0 6.0 4.0 3.0 7.0 10.0 9.0 6.0 0.0 4.0 6.0 1.0 1.0 7.0 6.0 7.0 4.0 7.0 8.0 9.0 2.0 2.0 10.0 0.0 9.0 5.0 6.0 2.0 7.0 7.0 1.0 6.0 8.0 6.0 10.0 3.0 10.0 0.0 4.0 9.0 4.0 1.0 4.0 9.0 5.0 2.0 2.0 6.0 5.0 5.0 5.0 7.0 8.0 3.0 5.0 7.0 6.0 0.0 8.0 8.0 9.0 3.0 7.0 9.0 10.0 6.0 9.0 2.0 5.0 9.0 0.0 5.0 9.0 10.0 9.0 2.0 6.0 
0.0 1.0 1.0 0.0 7.0 1.0 8.0 7.0 7.0 7.0 -458.0 5.0 7.0 4.0 7.0 2.0 6.0 10.0 3.0 2.0 10.0 8.0 1.0 0.0 6.0 3.0 2.0 10.0 2.0 7.0 10.0 10.0 4.0 2.0 9.0 10.0 3.0 8.0 5.0 0.0 1.0 10.0 4.0 6.0 0.0 5.0 0.0 10.0 10.0 9.0 10.0 9.0 3.0 3.0 8.0 10.0 10.0 7.0 10.0 10.0 5.0 3.0 9.0 7.0 6.0 1.0 0.0 0.0 0.0 5.0 8.0 5.0 3.0 1.0 0.0 5.0 8.0 0.0 5.0 6.0 9.0 5.0 6.0 1.0 2.0 7.0 2.0 8.0 6.0 5.0 
5.0 5.0 9.0 1.0 0.0 1.0 6.0 2.0 6.0 3.0 5.0 -426.0 3.0 9.0 4.0 9.0 7.0 2.0 7.0 9.0 3.0 9.0 9.0 1.0 1.0 1.0 0.0 8.0 3.0 3.0 1.0 3.0 1.0 7.0 8.0 7.0 10.0 1.0 1.0 2.0 0.0 9.0 2.0 2.0 5.0 4.0 10.0 7.0 8.0 0.0 0.0 10.0 6.0 1.0 5.0 6.0 3.0 10.0 4.0 4.0 10.0 2.0 9.0 1.0 1.0 8.0 10.0 2.0 7.0 3.0 2.0 0.0 3.0 5.0 10.0 6.0 7.0 6.0 9.0 10.0 6.0 1.0 0.0 7.0 2.0 8.0 8.0 2.0 10.0 3.0 
0.0 9.0 3.0 8.0 2.0 5.0 1.0 10.0 0.0 6.0 7.0 3.0 -430.0 1.0 10.0 6.0 9.0 2.0 6.0 2.0 6.0 10.0 7.0 3.0 3.0 0.0 5.0 0.0 10.0 8.0 4.0 2.0 4.0 0.0 5.0 7.0 0.0 0.0 6.0 1.0 7.0 8.0 9.0 10.0 0.0 10.0 2.0 4.0 0.0 1.0 9.0 6.0 8.0 10.0 3.0 2.0 8.0 1.0 8.0 2.0 10.0 8.0 6.0 2.0 9.0 0.0 8.0 7.0 1.0 9.0 7.0 0.0 3.0 0.0 9.0 1.0 7.0 1.0 5.0 8.0 8.0 9.0 2.0 3.0 3.0 10.0 6.0 2.0 6.0 1.0 
1.0 10.0 10.0 9.0 7.0 9.0 4.0 6.0 7.0 8.0 4.0 9.0 1.0 -482.0 8.0 8.0 0.0 9.0 5.0 7.0 7.0 10.0 1.0 7.0 9.0 8.0 8.0 5.0 10.0 0.0 10.0 5.0 3.0 0.0 2.0 7.0 2.0 5.0 9.0 2.0 9.0 1.0 2.0 5.0 2.0 0.0 4.0 4.0 8.0 3.0 6.0 9.0 2.0 8.0 4.0 8.0 2.0 8.0 10.0 10.0 7.0 0.0 0.0 5.0 9.0 6.0 0.0 9.0 7.0 7.0 6.0 2.0 1.0 4.0 5.0 1.0 2.0 10.0 8.0 1.0 6.0 8.0 7.0 1.0 9.0 5.0 4.0 7.0 1.0 7.0 
6.0 9.0 2.0 7.0 9.0 3.0 2.0 10.0 6.0 6.0 7.0 4.0 10.0 8.0 -470.0 10.0 3.0 9.0 3.0 9.0 1.0 5.0 5.0 9.0 0.0 1.0 10.0 6.0 8.0 0.0 8.0 9.0 4.0 0.0 4.0 6.0 2.0 10.0 4.0 9.0 9.0 2.0 5.0 4.0 10.0 9.0 10.0 3.0 9.0 3.0 1.0 8.0 8.0 8.0 9.0 2.0 6.0 8.0 5.0 5.0 2.0 1.0 5.0 7.0 2.0 10.0 2.0 2.0 7.0 4.0 5.0 10.0 2.0 8.0 3.0 6.0 7.0 0.0 1.0 8.0 3.0 3.0 2.0 7.0 3.0 4.0 3.0 0.0 3.0 2.0 
7.0 6.0 3.0 6.0 5.0 8.0 6.0 7.0 2.0 4.0 2.0 9.0 6.0 8.0 10.0 -450.0 9.0 8.0 3.0 6.0 2.0 0.0 6.0 0.0 6.0 7.0 6.0 6.0 10.0 0.0 3.0 0.0 6.0 0.0 4.0 1.0 6.0 3.0 5.0 9.0 7.0 7.0 6.0 7.0 5.0 10.0 6.0 1.0 9.0 9.0 2.0 0.0 2.0 10.0 5.0 8.0 7.0 0.0 6.0 7.0 9.0 4.0 4.0 6.0 1.0 4.0 1.0 8.0 1.0 1.0 0.0 0.0 9.0 3.0 3.0 10.0 4.0 9.0 10.0 2.0 5.0 7.0 1.0 7.0 6.0 8.0 7.0 0.0 9.0 2.0 
0.0 2.0 9.0 8.0 9.0 6.0 4.0 2.0 2.0 3.0 6.0 7.0 9.0 0.0 3.0 9.0 -435.0 1.0 4.0 7.0 6.0 5.0 1.0 1.0 0.0 7.0 3.0 2.0 8.0 7.0 4.0 9.0 6.0 4.0 8.0 10.0 7.0 4.0 8.0 4.0 2.0 5.0 5.0 3.0 4.0 9.0 3.0 6.0 1.0 2.0 4.0 0.0 5.0 2.0 10.0 9.0 2.0 3.0 1.0 8.0 10.0 6.0 0.0 5.0 5.0 7.0 9.0 9.0 10.0 2.0 0.0 7.0 8.0 3.0 10.0 9.0 1.0 8.0 6.0 6.0 9.0 2.0 2.0 2.0 6.0 1.0 5.0 4.0 4.0 0.0 
2.0 5.0 0.0 7.0 4.0 10.0 2.0 4.0 1.0 7.0 10.0 2.0 2.0 9.0 9.0 8.0 1.0 -483.0 2.0 1.0 1.0 7.0 6.0 9.0 10.0 9.0 4.0 6.0 7.0 8.0 1.0 8.0 10.0 0.0 10.0 2.0 5.0 7.0 6.0 5.0 10.0 10.0 3.0 7.0 0.0 0.0 3.0 5.0 5.0 2.0 1.0 8.0 10.0 2.0 4.0 4.0 2.0 7.0 9.0 1.0 6.0 0.0 6.0 1.0 8.0 10.0 2.0 9.0 5.0 4.0 8.0 9.0 1.0 2.0 6.0 9.0 2.0 7.0 8.0 7.0 9.0 3.0 6.0 3.0 9.0 10.0 9.0 6.0 10.0 8.0 
9.0 2.0 0.0 4.0 0.0 4.0 0.0 2.0 10.0 10.0 3.0 7.0 6.0 5.0 3.0 3.0 4.0 2.0 -429.0 6.0 7.0 8.0 0.0 2.0 5.0 10.0 3.0 8.0 0.0 10.0 5.0 4.0 4.0 2.0 8.0 6.0 7.0 4.0 10.0 1.0 10.0 10.0 7.0 8.0 4.0 4.0 6.0 2.0 10.0 0.0 4.0 5.0 8.0 0.0 1.0 8.0 9.0 3.0 8.0 4.0 1.0 2.0 9.0 8.0 4.0 5.0 4.0 7.0 0.0 4.0 8.0 2.0 3.0 3.0 0.0 3.0 2.0 8.0 2.0 4.0 7.0 3.0 2.0 5.0 5.0 4.0 9.0 10.0 4.0 6.0 
4.0 7.0 1.0 4.0 5.0 1.0 6.0 8.0 7.0 9.0 2.0 9.0 2.0 7.0 9.0 6.0 7.0 1.0 6.0 -476.0 7.0 4.0 0.0 10.0 10.0 6.0 1.0 4.0 7.0 7.0 4.0 2.0 1.0 2.0 9.0 1.0 7.0 10.0 2.0 3.0 8.0 8.0 9.0 9.0 8.0 5.0 5.0 8.0 4.0 8.0 8.0 4.0 9.0 0.0 2.0 7.0 3.0 6.0 5.0 8.0 5.0 0.0 4.0 0.0 2.0 6.0 0.0 3.0 6.0 4.0 5.0 1.0 0.0 7.0 6.0 10.0 8.0 8.0 9.0 3.0 7.0 2.0 6.0 10.0 3.0 8.0 9.0 7.0 9.0 6.0 
3.0 3.0 7.0 0.0 4.0 4.0 1.0 1.0 2.0 6.0 10.0 3.0 6.0 7.0 1.0 2.0 6.0 1.0 7.0 7.0 -405.0 7.0 8.0 7.0 3.0 1.0 6.0 6.0 0.0 4.0 4.0 4.0 5.0 9.0 2.0 6.0 2.0 4.0 1.0 3.0 1.0 1.0 7.0 10.0 1.0 5.0 1.0 1.0 10.0 10.0 5.0 4.0 9.0 9.0 6.0 2.0 1.0 4.0 9.0 9.0 10.0 4.0 4.0 3.0 2.0 7.0 5.0 4.0 6.0 2.0 7.0 6.0 5.0 4.0 2.0 6.0 6.0 1.0 4.0 4.0 1.0 4.0 4.0 4.0 8.0 7.0 2.0 6.0 7.0 2.0 
8.0 9.0 6.0 5.0 5.0 10.0 0.0 10.0 3.0 0.0 8.0 9.0 10.0 10.0 5.0 0.0 5.0 7.0 8.0 4.0 7.0 -463.0 10.0 0.0 4.0 8.0 2.0 3.0 5.0 8.0 1.0 6.0 1.0 1.0 1.0 9.0 3.0 8.0 9.0 3.0 5.0 1.0 6.0 10.0 10.0 10.0 6.0 4.0 6.0 10.0 0.0 8.0 0.0 10.0 4.0 3.0 2.0 3.0 4.0 10.0 5.0 4.0 10.0 0.0 2.0 9.0 1.0 6.0 2.0 9.0 2.0 0.0 0.0 8.0 10.0 8.0 6.0 5.0 9.0 4.0 2.0 1.0 6.0 5.0 1.0 4.0 4.0 10.0 7.0 0.0 
10.0 8.0 7.0 4.0 8.0 1.0 3.0 0.0 1.0 4.0 1.0 9.0 7.0 1.0 5.0 6.0 1.0 6.0 0.0 0.0 8.0 10.0 -461.0 4.0 0.0 5.0 9.0 5.0 7.0 0.0 8.0 5.0 10.0 4.0 6.0 6.0 8.0 7.0 5.0 6.0 10.0 0.0 2.0 10.0 5.0 4.0 8.0 3.0 7.0 3.0 6.0 3.0 5.0 1.0 8.0 4.0 4.0 9.0 0.0 4.0 6.0 8.0 7.0 7.0 7.0 10.0 10.0 4.0 5.0 10.0 4.0 3.0 7.0 2.0 8.0 4.0 10.0 7.0 7.0 5.0 0.0 7.0 6.0 5.0 3.0 7.0 6.0 0.0 4.0 1.0 
1.0 1.0 2.0 2.0 7.0 5.0 9.0 7.0 5.0 6.0 0.0 1.0 3.0 7.0 9.0 0.0 1.0 9.0 2.0 10.0 7.0 0.0 4.0 -440.0 8.0 7.0 2.0 9.0 5.0 5.0 0.0 2.0 6.0 1.0 1.0 1.0 4.0 6.0 7.0 2.0 2.0 8.0 8.0 9.0 6.0 4.0 2.0 6.0 2.0 6.0 9.0 10.0 0.0 2.0 8.0 9.0 4.0 2.0 9.0 7.0 3.0 8.0 6.0 7.0 9.0 9.0 8.0 5.0 9.0 1.0 9.0 9.0 4.0 3.0 0.0 4.0 6.0 8.0 9.0 0.0 7.0 5.0 1.0 5.0 4.0 8.0 3.0 1.0 5.0 7.0 
0.0 4.0 0.0 5.0 0.0 1.0 10.0 8.0 8.0 1.0 6.0 1.0 3.0 9.0 0.0 6.0 0.0 10.0 5.0 10.0 3.0 4.0 0.0 8.0 -438.0 6.0 4.0 9.0 10.0 4.0 3.0 7.0 8.0 8.0 7.0 1.0 10.0 2.0 8.0 10.0 0.0 9.0 9.0 2.0 10.0 1.0 4.0 10.0 1.0 0.0 8.0 1.0 1.0 5.0 10.0 9.0 3.0 0.0 7.0 7.0 1.0 7.0 1.0 5.0 10.0 10.0 10.0 2.0 2.0 5.0 7.0 6.0 0.0 3.0 6.0 6.0 8.0 2.0 2.0 5.0 3.0 10.0 6.0 2.0 10.0 6.0 2.0 3.0 1.0 1.0 
3.0 9.0 9.0 0.0 2.0 4.0 9.0 3.0 10.0 1.0 3.0 1.0 0.0 8.0 1.0 7.0 7.0 9.0 10.0 6.0 1.0 8.0 5.0 7.0 6.0 -442.0 5.0 4.0 9.0 9.0 7.0 2.0 1.0 7.0 5.0 1.0 8.0 4.0 2.0 4.0 7.0 8.0 1.0 5.0 4.0 8.0 3.0 6.0 4.0 5.0 1.0 8.0 0.0 5.0 5.0 8.0 0.0 4.0 9.0 6.0 4.0 8.0 6.0 7.0 2.0 1.0 1.0 4.0 4.0 2.0 4.0 3.0 10.0 6.0 10.0 2.0 1.0 7.0 2.0 4.0 6.0 2.0 3.0 6.0 7.0 10.0 5.0 9.0 9.0 3.0 
4.0 10.0 6.0 2.0 1.0 4.0 5.0 2.0 3.0 7.0 2.0 0.0 5.0 8.0 10.0 6.0 3.0 4.0 3.0 1.0 6.0 2.0 9.0 2.0 4.0 5.0 -439.0 6.0 9.0 4.0 0.0 2.0 8.0 10.0 1.0 3.0 2.0 7.0 3.0 9.0 5.0 1.0 9.0 8.0 2.0 7.0 2.0 4.0 9.0 0.0 4.0 4.0 2.0 9.0 2.0 8.0 2.0 10.0 2.0 3.0 4.0 7.0 4.0 6.0 1.0 10.0 1.0 0.0 10.0 8.0 4.0 4.0 9.0 10.0 0.0 10.0 9.0 9.0 6.0 5.0 0.0 10.0 3.0 7.0 6.0 1.0 5.0 7.0 8.0 4.0 
6.0 9.0 2.0 5.0 8.0 3.0 5.0 0.0 7.0 6.0 10.0 8.0 0.0 5.0 6.0 6.0 2.0 6.0 8.0 4.0 6.0 3.0 5.0 9.0 9.0 4.0 6.0 -461.0 10.0 5.0 8.0 5.0 7.0 1.0 3.0 8.0 0.0 5.0 4.0 4.0 2.0 4.0 7.0 5.0 9.0 5.0 9.0 1.0 2.0 8.0 3.0 8.0 0.0 3.0 2.0 3.0 10.0 9.0 4.0 10.0 6.0 3.0 9.0 6.0 0.0 3.0 1.0 5.0 5.0 4.0 6.0 7.0 1.0 8.0 4.0 8.0 8.0 6.0 5.0 5.0 3.0 10.0 6.0 10.0 6.0 4.0 6.0 0.0 4.0 0.0 
4.0 9.0 0.0 10.0 3.0 2.0 10.0 0.0 2.0 7.0 2.0 3.0 10.0 10.0 8.0 10.0 8.0 7.0 0.0 7.0 0.0 5.0 7.0 5.0 10.0 9.0 9.0 10.0 -460.0 7.0 2.0 0.0 4.0 2.0 6.0 5.0 2.0 3.0 3.0 6.0 3.0 4.0 10.0 6.0 10.0 4.0 7.0 1.0 8.0 1.0 4.0 0.0 5.0 1.0 9.0 4.0 8.0 5.0 6.0 7.0 0.0 4.0 10.0 4.0 2.0 2.0 9.0 2.0 4.0 5.0 1.0 0.0 0.0 0.0 7.0 9.0 1.0 10.0 5.0 2.0 5.0 2.0 4.0 10.0 9.0 7.0 10.0 8.0 10.0 8.0 
2.0 3.0 9.0 1.0 1.0 10.0 3.0 4.0 8.0 4.0 7.0 3.0 8.0 0.0 0.0 0.0 7.0 8.0 10.0 7.0 4.0 8.0 0.0 5.0 4.0 9.0 4.0 5.0 7.0 -450.0 10.0 7.0 9.0 4.0 4.0 2.0 6.0 3.0 6.0 4.0 3.0 0.0 0.0 10.0 3.0 3.0 4.0 3.0 4.0 5.0 10.0 10.0 8.0 9.0 7.0 9.0 2.0 0.0 2.0 4.0 2.0 10.0 0.0 3.0 4.0 9.0 5.0 1.0 10.0 1.0 8.0 9.0 4.0 3.0 5.0 10.0 7.0 10.0 1.0 5.0 4.0 9.0 0.0 7.0 8.0 1.0 6.0 0.0 9.0 7.0 
7.0 5.0 5.0 1.0 8.0 7.0 3.0 1.0 5.0 7.0 10.0 1.0 4.0 10.0 8.0 3.0 4.0 1.0 5.0 4.0 4.0 1.0 8.0 0.0 3.0 7.0 0.0 8.0 2.0 10.0 -402.0 4.0 7.0 7.0 4.0 4.0 4.0 0.0 4.0 9.0 2.0 1.0 4.0 1.0 1.0 2.0 7.0 1.0 8.0 4.0 2.0 4.0 4.0 0.0 2.0 0.0 7.0 9.0 5.0 4.0 6.0 7.0 7.0 4.0 6.0 0.0 5.0 10.0 0.0 3.0 5.0 1.0 5.0 8.0 2.0 0.0 5.0 5.0 8.0 10.0 0.0 4.0 10.0 8.0 8.0 4.0 0.0 3.0 5.0 10.0 
6.0 1.0 6.0 3.0 3.0 1.0 4.0 1.0 8.0 8.0 10.0 3.0 2.0 5.0 9.0 0.0 9.0 8.0 4.0 2.0 4.0 6.0 5.0 2.0 7.0 2.0 2.0 5.0 0.0 7.0 4.0 -436.0 6.0 3.0 9.0 4.0 2.0 6.0 5.0 7.0 10.0 10.0 3.0 0.0 10.0 4.0 7.0 10.0 0.0 4.0 4.0 5.0 7.0 3.0 1.0 10.0 1.0 4.0 6.0 9.0 7.0 5.0 3.0 6.0 1.0 0.0 10.0 5.0 0.0 1.0 10.0 5.0 0.0 0.0 10.0 3.0 9.0 9.0 4.0 1.0 9.0 5.0 9.0 9.0 2.0 7.0 8.0 2.0 8.0 1.0 
4.0 1.0 7.0 4.0 3.0 7.0 2.0 7.0 0.0 9.0 4.0 1.0 4.0 3.0 4.0 6.0 6.0 10.0 4.0 1.0 5.0 1.0 10.0 6.0 8.0 1.0 8.0 7.0 4.0 9.0 7.0 6.0 -438.0 10.0 10.0 5.0 4.0 8.0 10.0 6.0 4.0 0.0 1.0 2.0 7.0 1.0 3.0 6.0 0.0 2.0 2.0 5.0 0.0 10.0 5.0 1.0 5.0 3.0 8.0 1.0 6.0 6.0 9.0 9.0 2.0 1.0 4.0 3.0 9.0 2.0 8.0 8.0 2.0 2.0 0.0 7.0 2.0 5.0 10.0 2.0 6.0 10.0 10.0 4.0 3.0 6.0 3.0 3.0 9.0 9.0 
1.0 10.0 1.0 5.0 1.0 2.0 9.0 10.0 4.0 2.0 2.0 7.0 0.0 0.0 0.0 0.0 4.0 0.0 2.0 2.0 9.0 1.0 4.0 1.0 8.0 7.0 10.0 1.0 2.0 4.0 7.0 3.0 10.0 -408.0 7.0 9.0 10.0 1.0 6.0 2.0 5.0 8.0 1.0 1.0 9.0 5.0 5.0 3.0 8.0 3.0 4.0 4.0 0.0 2.0 2.0 8.0 9.0 4.0 2.0 10.0 4.0 2.0 7.0 5.0 9.0 9.0 9.0 3.0 9.0 10.0 2.0 0.0 1.0 10.0 8.0 4.0 6.0 2.0 0.0 10.0 1.0 0.0 8.0 0.0 7.0 3.0 5.0 3.0 4.0 10.0 
3.0 1.0 5.0 8.0 0.0 8.0 9.0 3.0 9.0 2.0 9.0 8.0 5.0 2.0 4.0 4.0 8.0 10.0 8.0 9.0 2.0 1.0 6.0 1.0 7.0 5.0 1.0 3.0 6.0 4.0 4.0 9.0 10.0 7.0 -485.0 6.0 0.0 8.0 5.0 2.0 2.0 6.0 6.0 7.0 10.0 10.0 0.0 5.0 3.0 4.0 5.0 3.0 8.0 2.0 9.0 7.0 10.0 8.0 9.0 4.0 1.0 10.0 4.0 0.0 9.0 7.0 10.0 4.0 10.0 4.0 9.0 8.0 7.0 5.0 1.0 10.0 2.0 4.0 7.0 3.0 8.0 3.0 5.0 1.0 5.0 2.0 3.0 10.0 5.0 8.0 
0.0 5.0 9.0 2.0 6.0 10.0 3.0 7.0 10.0 10.0 10.0 7.0 7.0 7.0 6.0 1.0 10.0 2.0 6.0 1.0 6.0 9.0 6.0 1.0 1.0 1.0 3.0 8.0 5.0 2.0 4.0 4.0 5.0 9.0 6.0 -439.0 8.0 1.0 6.0 9.0 5.0 3.0 2.0 10.0 1.0 6.0 1.0 2.0 2.0 9.0 9.0 9.0 1.0 8.0 10.0 4.0 6.0 9.0 1.0 6.0 3.0 2.0 0.0 0.0 0.0 2.0 2.0 6.0 8.0 10.0 3.0 9.0 6.0 0.0 6.0 4.0 9.0 10.0 2.0 8.0 0.0 1.0 2.0 0.0 5.0 10.0 8.0 0.0 2.0 4.0 
2.0 2.0 4.0 9.0 9.0 1.0 1.0 0.0 8.0 0.0 3.0 10.0 0.0 2.0 2.0 6.0 7.0 5.0 7.0 7.0 2.0 3.0 8.0 4.0 10.0 8.0 2.0 0.0 2.0 6.0 4.0 2.0 4.0 10.0 0.0 8.0 -454.0 2.0 5.0 2.0 7.0 5.0 9.0 9.0 8.0 2.0 10.0 8.0 9.0 4.0 8.0 0.0 10.0 5.0 10.0 6.0 5.0 6.0 6.0 9.0 6.0 0.0 0.0 2.0 0.0 2.0 5.0 8.0 3.0 9.0 0.0 10.0 7.0 4.0 8.0 9.0 6.0 4.0 1.0 8.0 10.0 1.0 6.0 9.0 2.0 7.0 2.0 9.0 9.0 4.0 
3.0 8.0 2.0 5.0 0.0 5.0 2.0 6.0 7.0 9.0 8.0 1.0 0.0 5.0 10.0 3.0 4.0 7.0 4.0 10.0 4.0 8.0 7.0 6.0 2.0 4.0 7.0 5.0 3.0 3.0 0.0 6.0 8.0 1.0 8.0 1.0 2.0 -419.0 3.0 4.0 5.0 2.0 7.0 3.0 9.0 5.0 9.0 3.0 1.0 3.0 8.0 8.0 8.0 9.0 0.0 2.0 9.0 8.0 1.0 3.0 1.0 1.0 5.0 10.0 0.0 10.0 6.0 0.0 1.0 7.0 2.0 10.0 3.0 5.0 10.0 2.0 3.0 2.0 9.0 5.0 3.0 6.0 3.0 10.0 9.0 0.0 0.0 1.0 1.0 10.0 
10.0 2.0 6.0 3.0 9.0 4.0 2.0 3.0 5.0 5.0 5.0 1.0 6.0 9.0 4.0 5.0 8.0 6.0 10.0 2.0 1.0 9.0 5.0 7.0 8.0 2.0 3.0 4.0 3.0 6.0 4.0 5.0 10.0 6.0 5.0 6.0 5.0 3.0 -462.0 7.0 2.0 10.0 5.0 9.0 4.0 2.0 6.0 6.0 10.0 10.0 9.0 7.0 5.0 1.0 7.0 7.0 7.0 7.0 3.0 7.0 4.0 4.0 10.0 1.0 1.0 1.0 5.0 9.0 2.0 1.0 5.0 4.0 8.0 7.0 10.0 1.0 4.0 6.0 8.0 4.0 2.0 8.0 8.0 4.0 8.0 0.0 5.0 0.0 4.0 0.0 
9.0 2.0 10.0 2.0 2.0 4.0 1.0 2.0 1.0 6.0 0.0 2.0 1.0 2.0 9.0 9.0 4.0 5.0 1.0 3.0 3.0 3.0 6.0 2.0 10.0 4.0 9.0 4.0 6.0 4.0 9.0 7.0 6.0 2.0 2.0 9.0 2.0 4.0 7.0 -403.0 7.0 8.0 10.0 4.0 6.0 3.0 2.0 3.0 8.0 1.0 7.0 6.0 0.0 7.0 1.0 0.0 3.0 2.0 10.0 5.0 9.0 0.0 1.0 5.0 7.0 4.0 5.0 7.0 5.0 9.0 3.0 2.0 7.0 5.0 4.0 1.0 5.0 7.0 1.0 7.0 5.0 5.0 0.0 0.0 2.0 8.0 10.0 5.0 2.0 5.0 
6.0 8.0 6.0 9.0 6.0 1.0 5.0 2.0 3.0 2.0 1.0 0.0 7.0 9.0 9.0 7.0 2.0 10.0 10.0 8.0 1.0 5.0 10.0 2.0 0.0 7.0 5.0 2.0 3.0 3.0 2.0 10.0 4.0 5.0 2.0 5.0 7.0 5.0 2.0 7.0 -470.0 4.0 2.0 6.0 4.0 0.0 10.0 6.0 9.0 8.0 8.0 6.0 10.0 0.0 9.0 7.0 6.0 10.0 5.0 7.0 9.0 7.0 0.0 9.0 10.0 4.0 1.0 0.0 4.0 4.0 7.0 6.0 9.0 0.0 1.0 4.0 3.0 9.0 6.0 2.0 3.0 6.0 6.0 10.0 7.0 9.0 2.0 4.0 9.0 4.0 
3.0 4.0 9.0 10.0 10.0 3.0 7.0 6.0 3.0 7.0 10.0 9.0 8.0 1.0 2.0 7.0 5.0 10.0 10.0 8.0 1.0 1.0 0.0 8.0 9.0 8.0 1.0 4.0 4.0 0.0 1.0 10.0 0.0 8.0 6.0 3.0 5.0 2.0 10.0 8.0 4.0 -461.0 10.0 8.0 1.0 3.0 1.0 4.0 10.0 8.0 5.0 5.0 6.0 0.0 9.0 3.0 2.0 3.0 10.0 7.0 9.0 1.0 4.0 8.0 3.0 7.0 6.0 5.0 2.0 0.0 3.0 0.0 8.0 0.0 0.0 3.0 8.0 3.0 7.0 9.0 9.0 2.0 9.0 2.0 4.0 4.0 6.0 1.0 10.0 8.0 
10.0 1.0 6.0 0.0 7.0 0.0 3.0 7.0 2.0 7.0 4.0 2.0 9.0 2.0 5.0 6.0 5.0 3.0 7.0 9.0 7.0 6.0 2.0 8.0 9.0 1.0 9.0 7.0 10.0 0.0 4.0 3.0 1.0 1.0 6.0 2.0 9.0 7.0 5.0 10.0 2.0 10.0 -468.0 10.0 3.0 2.0 3.0 6.0 8.0 9.0 5.0 2.0 4.0 5.0 7.0 0.0 5.0 7.0 9.0 8.0 7.0 10.0 2.0 8.0 10.0 10.0 1.0 10.0 0.0 2.0 6.0 7.0 5.0 0.0 5.0 8.0 10.0 10.0 5.0 8.0 8.0 6.0 0.0 1.0 1.0 6.0 2.0 1.0 6.0 6.0 
10.0 8.0 7.0 4.0 5.0 3.0 2.0 8.0 2.0 1.0 6.0 2.0 10.0 5.0 4.0 7.0 3.0 7.0 8.0 9.0 10.0 10.0 10.0 9.0 2.0 5.0 8.0 5.0 6.0 10.0 1.0 0.0 2.0 1.0 7.0 10.0 9.0 3.0 9.0 4.0 6.0 8.0 10.0 -546.0 2.0 9.0 9.0 4.0 1.0 9.0 6.0 5.0 7.0 8.0 7.0 3.0 1.0 1.0 8.0 0.0 8.0 10.0 6.0 8.0 7.0 9.0 10.0 3.0 4.0 9.0 7.0 1.0 7.0 6.0 10.0 6.0 8.0 2.0 5.0 8.0 7.0 3.0 9.0 9.0 4.0 10.0 10.0 10.0 6.0 8.0 
0.0 10.0 4.0 7.0 8.0 2.0 10.0 2.0 7.0 6.0 0.0 5.0 0.0 2.0 10.0 5.0 4.0 0.0 4.0 8.0 1.0 10.0 5.0 6.0 10.0 4.0 2.0 9.0 10.0 3.0 1.0 10.0 7.0 9.0 10.0 1.0 8.0 9.0 4.0 6.0 4.0 1.0 3.0 2.0 -468.0 5.0 0.0 4.0 8.0 9.0 1.0 10.0 10.0 5.0 8.0 1.0 0.0 3.0 7.0 7.0 9.0 0.0 5.0 3.0 9.0 4.0 2.0 9.0 0.0 1.0 6.0 3.0 2.0 6.0 4.0 0.0 8.0 5.0 10.0 3.0 2.0 0.0 10.0 10.0 10.0 4.0 10.0 10.0 10.0 6.0 
1.0 7.0 3.0 2.0 3.0 4.0 1.0 1.0 3.0 8.0 5.0 4.0 10.0 0.0 9.0 10.0 9.0 0.0 4.0 5.0 5.0 10.0 4.0 4.0 1.0 8.0 7.0 5.0 4.0 3.0 2.0 4.0 1.0 5.0 10.0 6.0 2.0 5.0 2.0 3.0 0.0 3.0 2.0 9.0 5.0 -435.0 7.0 4.0 5.0 6.0 4.0 2.0 5.0 2.0 8.0 9.0 6.0 7.0 9.0 5.0 3.0 4.0 3.0 9.0 4.0 2.0 4.0 7.0 2.0 8.0 3.0 5.0 1.0 4.0 7.0 8.0 1.0 4.0 4.0 8.0 9.0 3.0 5.0 6.0 4.0 7.0 9.0 3.0 10.0 10.0 
0.0 10.0 0.0 10.0 4.0 5.0 3.0 2.0 9.0 6.0 0.0 10.0 2.0 4.0 10.0 6.0 3.0 3.0 6.0 5.0 1.0 6.0 8.0 2.0 4.0 3.0 2.0 9.0 7.0 4.0 7.0 7.0 3.0 5.0 0.0 1.0 10.0 9.0 6.0 2.0 10.0 1.0 3.0 9.0 0.0 7.0 -435.0 1.0 0.0 6.0 9.0 0.0 3.0 5.0 10.0 3.0 7.0 2.0 5.0 4.0 9.0 0.0 2.0 7.0 8.0 10.0 3.0 1.0 7.0 10.0 10.0 8.0 8.0 10.0 10.0 0.0 0.0 8.0 1.0 4.0 6.0 0.0 10.0 9.0 4.0 6.0 0.0 0.0 4.0 1.0 
0.0 9.0 3.0 0.0 2.0 5.0 0.0 8.0 6.0 10.0 10.0 7.0 4.0 4.0 3.0 1.0 6.0 5.0 2.0 8.0 1.0 4.0 3.0 6.0 10.0 6.0 4.0 1.0 1.0 3.0 1.0 10.0 6.0 3.0 5.0 2.0 8.0 3.0 6.0 3.0 6.0 4.0 6.0 4.0 4.0 4.0 1.0 -422.0 1.0 7.0 2.0 10.0 1.0 9.0 0.0 4.0 2.0 1.0 10.0 7.0 9.0 8.0 5.0 10.0 0.0 8.0 6.0 0.0 5.0 5.0 10.0 1.0 1.0 1.0 1.0 6.0 8.0 3.0 3.0 10.0 4.0 9.0 3.0 9.0 10.0 6.0 1.0 5.0 5.0 8.0 
6.0 8.0 3.0 5.0 10.0 2.0 3.0 10.0 2.0 3.0 10.0 8.0 0.0 8.0 9.0 9.0 1.0 5.0 10.0 4.0 10.0 6.0 7.0 2.0 1.0 4.0 9.0 2.0 8.0 4.0 8.0 0.0 0.0 8.0 3.0 2.0 9.0 1.0 10.0 8.0 9.0 10.0 8.0 1.0 8.0 5.0 0.0 1.0 -446.0 10.0 9.0 0.0 7.0 3.0 7.0 0.0 0.0 4.0 4.0 3.0 10.0 6.0 3.0 5.0 0.0 2.0 1.0 5.0 1.0 4.0 6.0 2.0 5.0 7.0 2.0 6.0 9.0 4.0 4.0 5.0 10.0 9.0 1.0 1.0 6.0 8.0 3.0 10.0 1.0 3.0 
2.0 9.0 7.0 1.0 0.0 8.0 10.0 2.0 9.0 10.0 9.0 0.0 1.0 3.0 3.0 9.0 2.0 2.0 0.0 8.0 10.0 10.0 3.0 6.0 0.0 5.0 0.0 8.0 1.0 5.0 4.0 4.0 2.0 3.0 4.0 9.0 4.0 3.0 10.0 1.0 8.0 8.0 9.0 9.0 9.0 6.0 6.0 7.0 10.0 -433.0 8.0 5.0 1.0 6.0 2.0 4.0 5.0 1.0 8.0 1.0 2.0 1.0 10.0 8.0 1.0 1.0 8.0 0.0 1.0 10.0 4.0 6.0 4.0 8.0 2.0 10.0 3.0 6.0 5.0 6.0 1.0 4.0 0.0 8.0 1.0 8.0 8.0 3.0 2.0 2.0 
0.0 5.0 0.0 3.0 9.0 6.0 2.0 5.0 1.0 0.0 10.0 0.0 9.0 6.0 1.0 2.0 4.0 1.0 4.0 8.0 5.0 0.0 6.0 9.0 8.0 1.0 4.0 3.0 4.0 10.0 2.0 4.0 2.0 4.0 5.0 9.0 8.0 8.0 9.0 7.0 8.0 5.0 5.0 6.0 1.0 4.0 9.0 2.0 9.0 8.0 -457.0 6.0 6.0 1.0 9.0 7.0 0.0 9.0 6.0 10.0 5.0 4.0 1.0 0.0 3.0 9.0 3.0 5.0 8.0 10.0 1.0 6.0 6.0 5.0 10.0 10.0 6.0 10.0 6.0 1.0 6.0 0.0 9.0 6.0 6.0 8.0 9.0 8.0 1.0 0.0 
1.0 2.0 8.0 10.0 10.0 7.0 10.0 4.0 0.0 4.0 9.0 10.0 6.0 9.0 8.0 0.0 0.0 8.0 5.0 4.0 4.0 8.0 3.0 10.0 1.0 8.0 4.0 8.0 0.0 10.0 4.0 5.0 5.0 4.0 3.0 9.0 0.0 8.0 7.0 6.0 6.0 5.0 2.0 5.0 10.0 2.0 0.0 10.0 0.0 5.0 6.0 -459.0 3.0 6.0 0.0 7.0 3.0 5.0 3.0 0.0 7.0 2.0 2.0 8.0 7.0 2.0 6.0 9.0 9.0 9.0 6.0 5.0 8.0 4.0 1.0 10.0 7.0 9.0 0.0 4.0 0.0 9.0 5.0 3.0 5.0 10.0 1.0 1.0 3.0 7.0 
3.0 8.0 9.0 9.0 0.0 8.0 9.0 6.0 5.0 9.0 3.0 6.0 8.0 2.0 8.0 2.0 5.0 10.0 8.0 9.0 9.0 0.0 5.0 0.0 1.0 0.0 2.0 0.0 5.0 8.0 4.0 7.0 0.0 0.0 8.0 1.0 10.0 8.0 5.0 0.0 10.0 6.0 4.0 7.0 10.0 5.0 3.0 1.0 7.0 1.0 6.0 3.0 -455.0 2.0 7.0 4.0 7.0 8.0 4.0 0.0 3.0 9.0 1.0 8.0 10.0 8.0 1.0 5.0 10.0 1.0 4.0 2.0 8.0 5.0 7.0 7.0 0.0 7.0 10.0 5.0 0.0 9.0 2.0 5.0 5.0 10.0 7.0 8.0 0.0 3.0 
6.0 1.0 7.0 0.0 8.0 4.0 5.0 7.0 6.0 4.0 3.0 1.0 10.0 8.0 8.0 10.0 2.0 2.0 0.0 0.0 9.0 10.0 1.0 2.0 5.0 5.0 9.0 3.0 1.0 9.0 0.0 3.0 10.0 2.0 2.0 8.0 5.0 9.0 1.0 7.0 0.0 0.0 5.0 8.0 5.0 2.0 5.0 9.0 3.0 6.0 1.0 6.0 2.0 -390.0 8.0 2.0 1.0 0.0 9.0 6.0 6.0 3.0 8.0 7.0 2.0 4.0 8.0 10.0 2.0 6.0 2.0 1.0 5.0 2.0 5.0 0.0 9.0 6.0 6.0 1.0 0.0 2.0 4.0 1.0 6.0 1.0 3.0 1.0 5.0 3.0 
10.0 2.0 8.0 5.0 2.0 4.0 3.0 3.0 6.0 1.0 8.0 5.0 3.0 4.0 9.0 5.0 10.0 4.0 1.0 2.0 6.0 4.0 8.0 8.0 10.0 5.0 2.0 2.0 9.0 7.0 2.0 1.0 5.0 2.0 9.0 10.0 10.0 0.0 7.0 1.0 9.0 9.0 7.0 7.0 8.0 8.0 10.0 0.0 7.0 2.0 9.0 0.0 7.0 8.0 -460.0 6.0 10.0 3.0 3.0 3.0 2.0 5.0 1.0 4.0 7.0 6.0 3.0 7.0 3.0 5.0 8.0 1.0 1.0 7.0 3.0 10.0 7.0 0.0 0.0 9.0 8.0 2.0 9.0 10.0 6.0 3.0 2.0 4.0 5.0 3.0 
4.0 4.0 0.0 10.0 8.0 8.0 5.0 6.0 3.0 4.0 10.0 6.0 2.0 8.0 2.0 8.0 9.0 4.0 8.0 7.0 2.0 3.0 4.0 9.0 9.0 8.0 8.0 3.0 4.0 9.0 0.0 10.0 1.0 8.0 7.0 4.0 6.0 2.0 7.0 0.0 7.0 3.0 0.0 3.0 1.0 9.0 3.0 4.0 0.0 4.0 7.0 7.0 4.0 2.0 6.0 -467.0 9.0 10.0 2.0 1.0 3.0 8.0 6.0 0.0 3.0 8.0 4.0 6.0 9.0 0.0 8.0 9.0 8.0 4.0 9.0 3.0 7.0 2.0 8.0 0.0 8.0 9.0 10.0 4.0 10.0 3.0 6.0 1.0 5.0 4.0 
7.0 4.0 4.0 0.0 5.0 10.0 4.0 10.0 2.0 9.0 10.0 3.0 8.0 2.0 6.0 7.0 2.0 2.0 9.0 3.0 1.0 2.0 4.0 4.0 3.0 0.0 2.0 10.0 8.0 2.0 7.0 1.0 5.0 9.0 10.0 6.0 5.0 9.0 7.0 3.0 6.0 2.0 5.0 1.0 0.0 6.0 7.0 2.0 0.0 5.0 0.0 3.0 7.0 1.0 10.0 9.0 -435.0 8.0 8.0 1.0 3.0 10.0 6.0 2.0 3.0 7.0 6.0 2.0 8.0 4.0 4.0 7.0 7.0 4.0 2.0 7.0 3.0 9.0 7.0 3.0 3.0 7.0 2.0 8.0 2.0 6.0 0.0 8.0 4.0 5.0 
8.0 6.0 10.0 10.0 1.0 3.0 0.0 5.0 2.0 5.0 7.0 10.0 1.0 8.0 8.0 0.0 3.0 7.0 3.0 6.0 4.0 3.0 9.0 2.0 0.0 4.0 10.0 9.0 5.0 0.0 9.0 4.0 3.0 4.0 8.0 9.0 6.0 8.0 7.0 2.0 10.0 3.0 7.0 1.0 3.0 7.0 2.0 1.0 4.0 1.0 9.0 5.0 8.0 0.0 3.0 10.0 8.0 -439.0 7.0 0.0 4.0 3.0 10.0 10.0 3.0 10.0 1.0 1.0 2.0 8.0 3.0 10.0 7.0 5.0 6.0 10.0 0.0 1.0 1.0 9.0 2.0 5.0 5.0 8.0 6.0 2.0 2.0 1.0 4.0 2.0 
5.0 9.0 1.0 8.0 8.0 8.0 2.0 5.0 10.0 2.0 10.0 4.0 8.0 10.0 5.0 6.0 1.0 9.0 8.0 5.0 9.0 4.0 0.0 9.0 7.0 9.0 2.0 4.0 6.0 2.0 5.0 6.0 8.0 2.0 9.0 1.0 6.0 1.0 3.0 10.0 5.0 10.0 9.0 8.0 7.0 9.0 5.0 10.0 4.0 8.0 6.0 3.0 4.0 9.0 3.0 2.0 8.0 7.0 -489.0 10.0 5.0 1.0 1.0 9.0 0.0 1.0 7.0 5.0 8.0 6.0 3.0 2.0 7.0 2.0 10.0 7.0 3.0 5.0 1.0 0.0 8.0 1.0 4.0 4.0 9.0 7.0 7.0 6.0 1.0 5.0 
7.0 7.0 3.0 5.0 6.0 10.0 8.0 1.0 3.0 2.0 10.0 4.0 2.0 10.0 5.0 7.0 8.0 1.0 4.0 8.0 9.0 10.0 4.0 7.0 7.0 6.0 3.0 10.0 7.0 4.0 4.0 9.0 1.0 10.0 4.0 6.0 9.0 3.0 7.0 5.0 7.0 7.0 8.0 0.0 7.0 5.0 4.0 7.0 3.0 1.0 10.0 0.0 0.0 6.0 3.0 1.0 1.0 0.0 10.0 -484.0 10.0 9.0 5.0 5.0 8.0 7.0 3.0 4.0 10.0 3.0 2.0 0.0 0.0 10.0 8.0 10.0 2.0 10.0 3.0 8.0 4.0 5.0 10.0 1.0 4.0 9.0 5.0 8.0 0.0 5.0 
2.0 5.0 5.0 7.0 6.0 4.0 2.0 4.0 4.0 6.0 5.0 10.0 10.0 7.0 2.0 9.0 10.0 6.0 1.0 5.0 10.0 5.0 6.0 3.0 1.0 4.0 4.0 6.0 0.0 2.0 6.0 7.0 6.0 4.0 1.0 3.0 6.0 1.0 4.0 9.0 9.0 9.0 7.0 8.0 9.0 3.0 9.0 9.0 10.0 2.0 5.0 7.0 3.0 6.0 2.0 3.0 3.0 4.0 5.0 10.0 -468.0 4.0 7.0 7.0 7.0 8.0 2.0 4.0 8.0 5.0 7.0 4.0 8.0 3.0 5.0 7.0 0.0 1.0 3.0 1.0 2.0 6.0 7.0 7.0 7.0 5.0 9.0 6.0 4.0 3.0 
1.0 1.0 4.0 5.0 10.0 6.0 6.0 1.0 1.0 5.0 3.0 2.0 8.0 0.0 1.0 4.0 6.0 0.0 2.0 0.0 4.0 4.0 8.0 8.0 7.0 8.0 7.0 3.0 4.0 10.0 7.0 5.0 6.0 2.0 10.0 2.0 0.0 1.0 4.0 0.0 7.0 1.0 10.0 10.0 0.0 4.0 0.0 8.0 6.0 1.0 4.0 2.0 9.0 3.0 5.0 8.0 10.0 3.0 1.0 9.0 4.0 -415.0 9.0 2.0 3.0 8.0 7.0 8.0 10.0 9.0 4.0 3.0 4.0 2.0 2.0 4.0 1.0 5.0 3.0 1.0 8.0 5.0 10.0 7.0 6.0 0.0 7.0 1.0 10.0 5.0 
7.0 10.0 4.0 6.0 3.0 0.0 7.0 8.0 4.0 5.0 9.0 9.0 6.0 0.0 5.0 4.0 0.0 6.0 9.0 4.0 4.0 10.0 7.0 6.0 1.0 6.0 4.0 9.0 10.0 0.0 7.0 3.0 9.0 7.0 4.0 0.0 0.0 5.0 10.0 1.0 0.0 4.0 2.0 6.0 5.0 3.0 2.0 5.0 3.0 10.0 1.0 2.0 1.0 8.0 1.0 6.0 6.0 10.0 1.0 5.0 7.0 9.0 -418.0 0.0 6.0 2.0 9.0 2.0 5.0 5.0 5.0 0.0 1.0 6.0 5.0 7.0 0.0 0.0 1.0 9.0 7.0 3.0 5.0 2.0 5.0 3.0 4.0 7.0 4.0 9.0 
9.0 5.0 5.0 0.0 4.0 8.0 8.0 5.0 5.0 5.0 7.0 1.0 2.0 5.0 7.0 6.0 5.0 1.0 8.0 0.0 3.0 0.0 7.0 7.0 5.0 7.0 6.0 6.0 4.0 3.0 4.0 6.0 9.0 5.0 0.0 0.0 2.0 10.0 1.0 5.0 9.0 8.0 8.0 8.0 3.0 9.0 7.0 10.0 5.0 8.0 0.0 8.0 8.0 7.0 4.0 0.0 2.0 10.0 9.0 5.0 7.0 2.0 0.0 -443.0 10.0 5.0 8.0 3.0 10.0 3.0 10.0 9.0 1.0 3.0 2.0 5.0 0.0 2.0 10.0 0.0 2.0 3.0 0.0 7.0 4.0 2.0 1.0 1.0 10.0 9.0 
8.0 2.0 3.0 7.0 5.0 4.0 1.0 0.0 9.0 7.0 6.0 1.0 9.0 9.0 2.0 1.0 5.0 8.0 4.0 2.0 2.0 2.0 7.0 9.0 10.0 2.0 1.0 0.0 2.0 4.0 6.0 1.0 2.0 9.0 9.0 0.0 0.0 0.0 1.0 7.0 10.0 3.0 10.0 7.0 9.0 4.0 8.0 0.0 0.0 1.0 3.0 7.0 10.0 2.0 7.0 3.0 3.0 3.0 0.0 8.0 7.0 3.0 6.0 10.0 -422.0 5.0 8.0 4.0 2.0 9.0 3.0 1.0 10.0 10.0 6.0 8.0 0.0 1.0 9.0 2.0 5.0 10.0 2.0 2.0 8.0 5.0 5.0 3.0 9.0 4.0 
4.0 8.0 9.0 4.0 9.0 10.0 0.0 5.0 2.0 8.0 1.0 8.0 0.0 6.0 10.0 4.0 7.0 10.0 5.0 6.0 7.0 9.0 10.0 9.0 10.0 1.0 10.0 3.0 2.0 9.0 0.0 0.0 1.0 9.0 7.0 2.0 2.0 10.0 1.0 4.0 4.0 7.0 10.0 9.0 4.0 2.0 10.0 8.0 2.0 1.0 9.0 2.0 8.0 4.0 6.0 8.0 7.0 10.0 1.0 7.0 8.0 8.0 2.0 5.0 5.0 -487.0 0.0 7.0 1.0 3.0 5.0 4.0 7.0 2.0 0.0 7.0 5.0 3.0 5.0 7.0 10.0 5.0 7.0 10.0 8.0 1.0 7.0 6.0 4.0 4.0 
6.0 7.0 2.0 0.0 6.0 0.0 3.0 7.0 4.0 3.0 0.0 10.0 8.0 0.0 2.0 1.0 9.0 2.0 4.0 0.0 5.0 1.0 10.0 8.0 10.0 1.0 1.0 1.0 9.0 5.0 5.0 10.0 4.0 9.0 10.0 2.0 5.0 6.0 5.0 5.0 1.0 6.0 1.0 10.0 2.0 4.0 3.0 6.0 1.0 8.0 3.0 6.0 1.0 8.0 3.0 4.0 6.0 1.0 7.0 3.0 2.0 7.0 9.0 8.0 8.0 0.0 -408.0 0.0 6.0 6.0 7.0 9.0 0.0 3.0 2.0 2.0 7.0 5.0 1.0 8.0 10.0 6.0 1.0 6.0 5.0 5.0 2.0 1.0 2.0 10.0 
8.0 1.0 1.0 1.0 7.0 4.0 8.0 7.0 9.0 5.0 0.0 2.0 7.0 9.0 2.0 8.0 9.0 9.0 7.0 3.0 4.0 6.0 4.0 5.0 2.0 4.0 0.0 5.0 2.0 1.0 10.0 5.0 3.0 3.0 4.0 6.0 8.0 0.0 9.0 7.0 0.0 5.0 10.0 3.0 9.0 7.0 1.0 0.0 5.0 0.0 5.0 9.0 5.0 10.0 7.0 6.0 2.0 1.0 5.0 4.0 4.0 8.0 2.0 3.0 4.0 7.0 0.0 -419.0 5.0 3.0 2.0 5.0 6.0 7.0 0.0 10.0 10.0 0.0 3.0 8.0 10.0 3.0 1.0 7.0 5.0 0.0 5.0 4.0 7.0 1.0 
6.0 10.0 7.0 9.0 4.0 2.0 9.0 8.0 8.0 7.0 0.0 7.0 1.0 7.0 7.0 1.0 10.0 5.0 0.0 6.0 6.0 2.0 5.0 9.0 2.0 4.0 10.0 5.0 4.0 10.0 0.0 0.0 9.0 9.0 10.0 8.0 3.0 1.0 2.0 5.0 4.0 2.0 0.0 4.0 0.0 2.0 7.0 5.0 1.0 1.0 8.0 9.0 10.0 2.0 3.0 9.0 8.0 2.0 8.0 10.0 8.0 10.0 5.0 10.0 2.0 1.0 6.0 5.0 -492.0 1.0 4.0 10.0 0.0 8.0 6.0 10.0 5.0 4.0 6.0 7.0 8.0 4.0 8.0 3.0 8.0 8.0 6.0 10.0 9.0 7.0 
9.0 8.0 2.0 9.0 4.0 10.0 1.0 1.0 9.0 6.0 5.0 3.0 9.0 7.0 4.0 1.0 2.0 4.0 4.0 4.0 2.0 9.0 10.0 1.0 5.0 2.0 8.0 4.0 5.0 1.0 3.0 1.0 2.0 10.0 4.0 10.0 9.0 7.0 1.0 9.0 4.0 0.0 2.0 9.0 1.0 8.0 10.0 5.0 4.0 10.0 10.0 9.0 1.0 6.0 5.0 0.0 4.0 8.0 6.0 3.0 5.0 9.0 5.0 3.0 9.0 3.0 6.0 3.0 1.0 -439.0 7.0 1.0 8.0 0.0 6.0 6.0 0.0 0.0 3.0 2.0 0.0 10.0 6.0 8.0 0.0 10.0 9.0 1.0 8.0 0.0 
8.0 10.0 0.0 8.0 9.0 2.0 6.0 9.0 3.0 0.0 8.0 2.0 7.0 6.0 5.0 0.0 0.0 8.0 8.0 5.0 7.0 2.0 4.0 9.0 7.0 4.0 4.0 6.0 1.0 8.0 5.0 10.0 8.0 2.0 9.0 3.0 0.0 2.0 5.0 3.0 7.0 3.0 6.0 7.0 6.0 3.0 10.0 10.0 6.0 4.0 1.0 6.0 4.0 2.0 8.0 8.0 4.0 3.0 3.0 2.0 7.0 4.0 5.0 10.0 3.0 5.0 7.0 2.0 4.0 7.0 -457.0 9.0 4.0 10.0 6.0 9.0 5.0 8.0 4.0 0.0 3.0 5.0 1.0 6.0 4.0 4.0 2.0 7.0 2.0 8.0 
3.0 6.0 9.0 8.0 2.0 6.0 6.0 0.0 3.0 8.0 5.0 0.0 0.0 2.0 10.0 0.0 7.0 9.0 2.0 1.0 6.0 0.0 3.0 9.0 6.0 3.0 4.0 7.0 0.0 9.0 1.0 5.0 8.0 0.0 8.0 9.0 10.0 10.0 4.0 2.0 6.0 0.0 7.0 1.0 3.0 5.0 8.0 1.0 2.0 6.0 6.0 5.0 2.0 1.0 1.0 9.0 7.0 10.0 2.0 0.0 4.0 3.0 0.0 9.0 1.0 4.0 9.0 5.0 10.0 1.0 9.0 -417.0 10.0 7.0 9.0 1.0 2.0 1.0 8.0 3.0 10.0 7.0 8.0 4.0 5.0 1.0 9.0 0.0 1.0 3.0 
4.0 1.0 0.0 0.0 0.0 3.0 2.0 2.0 5.0 8.0 3.0 3.0 3.0 1.0 2.0 9.0 8.0 1.0 3.0 0.0 5.0 0.0 7.0 4.0 0.0 10.0 9.0 1.0 0.0 4.0 5.0 0.0 2.0 1.0 7.0 6.0 7.0 3.0 8.0 7.0 9.0 8.0 5.0 7.0 2.0 1.0 8.0 1.0 5.0 4.0 6.0 8.0 8.0 5.0 1.0 8.0 7.0 7.0 7.0 0.0 8.0 4.0 1.0 1.0 10.0 7.0 0.0 6.0 0.0 8.0 4.0 10.0 -381.0 10.0 10.0 0.0 7.0 3.0 1.0 0.0 1.0 10.0 4.0 2.0 3.0 0.0 7.0 6.0 0.0 7.0 
8.0 5.0 0.0 6.0 8.0 3.0 10.0 4.0 5.0 9.0 1.0 5.0 0.0 4.0 8.0 3.0 3.0 2.0 3.0 7.0 4.0 8.0 2.0 3.0 3.0 6.0 10.0 8.0 0.0 3.0 8.0 0.0 2.0 10.0 5.0 0.0 4.0 5.0 7.0 5.0 0.0 0.0 0.0 6.0 6.0 4.0 10.0 1.0 7.0 8.0 5.0 4.0 5.0 2.0 7.0 4.0 4.0 5.0 2.0 10.0 3.0 2.0 6.0 3.0 10.0 2.0 3.0 7.0 8.0 0.0 10.0 7.0 10.0 -420.0 8.0 4.0 4.0 5.0 5.0 6.0 0.0 1.0 8.0 3.0 9.0 0.0 10.0 1.0 0.0 8.0 
4.0 2.0 6.0 2.0 1.0 6.0 9.0 5.0 10.0 3.0 0.0 10.0 9.0 5.0 3.0 3.0 10.0 6.0 0.0 6.0 2.0 10.0 8.0 0.0 6.0 10.0 0.0 4.0 7.0 5.0 2.0 10.0 0.0 8.0 1.0 6.0 8.0 10.0 10.0 4.0 1.0 0.0 5.0 10.0 4.0 7.0 10.0 1.0 2.0 2.0 10.0 1.0 7.0 5.0 3.0 9.0 2.0 6.0 10.0 8.0 5.0 2.0 5.0 2.0 6.0 0.0 2.0 0.0 6.0 6.0 6.0 9.0 10.0 8.0 -481.0 10.0 7.0 3.0 9.0 10.0 7.0 10.0 0.0 10.0 9.0 4.0 5.0 7.0 2.0 7.0 
7.0 6.0 10.0 9.0 5.0 5.0 2.0 7.0 8.0 7.0 5.0 6.0 1.0 1.0 6.0 10.0 9.0 9.0 3.0 10.0 6.0 8.0 4.0 4.0 6.0 2.0 10.0 8.0 9.0 10.0 0.0 3.0 7.0 4.0 10.0 4.0 9.0 2.0 1.0 1.0 4.0 3.0 8.0 6.0 0.0 8.0 0.0 6.0 6.0 10.0 10.0 10.0 7.0 0.0 10.0 3.0 7.0 10.0 7.0 10.0 7.0 4.0 7.0 5.0 8.0 7.0 2.0 10.0 10.0 6.0 9.0 1.0 0.0 4.0 10.0 -519.0 1.0 9.0 0.0 9.0 4.0 8.0 1.0 9.0 5.0 4.0 1.0 9.0 4.0 6.0 
1.0 4.0 1.0 9.0 8.0 9.0 8.0 0.0 0.0 9.0 8.0 7.0 7.0 2.0 7.0 4.0 1.0 2.0 2.0 8.0 6.0 6.0 10.0 6.0 8.0 1.0 9.0 8.0 1.0 7.0 5.0 9.0 2.0 6.0 2.0 9.0 6.0 3.0 4.0 5.0 3.0 8.0 10.0 8.0 8.0 1.0 0.0 8.0 9.0 3.0 6.0 7.0 0.0 9.0 7.0 7.0 3.0 0.0 3.0 2.0 0.0 1.0 0.0 0.0 0.0 5.0 7.0 10.0 5.0 0.0 5.0 2.0 7.0 4.0 7.0 1.0 -417.0 5.0 3.0 4.0 5.0 0.0 8.0 0.0 10.0 0.0 2.0 0.0 7.0 7.0 
3.0 10.0 4.0 5.0 3.0 7.0 10.0 5.0 5.0 10.0 0.0 6.0 1.0 10.0 0.0 9.0 8.0 7.0 8.0 8.0 1.0 5.0 7.0 8.0 2.0 7.0 9.0 6.0 10.0 10.0 5.0 9.0 5.0 2.0 4.0 10.0 4.0 2.0 6.0 7.0 9.0 3.0 10.0 2.0 5.0 4.0 8.0 3.0 4.0 6.0 10.0 9.0 7.0 6.0 0.0 2.0 9.0 1.0 5.0 10.0 1.0 5.0 0.0 2.0 1.0 3.0 5.0 0.0 4.0 0.0 8.0 1.0 3.0 5.0 3.0 9.0 5.0 -473.0 5.0 7.0 7.0 8.0 0.0 4.0 6.0 10.0 0.0 6.0 7.0 7.0 
8.0 5.0 4.0 4.0 2.0 10.0 3.0 2.0 8.0 6.0 5.0 9.0 5.0 8.0 1.0 10.0 6.0 8.0 2.0 9.0 4.0 9.0 7.0 9.0 2.0 2.0 6.0 5.0 5.0 1.0 8.0 4.0 10.0 0.0 7.0 2.0 1.0 9.0 8.0 1.0 6.0 7.0 5.0 5.0 10.0 4.0 1.0 3.0 4.0 5.0 6.0 0.0 10.0 6.0 0.0 8.0 7.0 1.0 1.0 3.0 3.0 3.0 1.0 10.0 9.0 5.0 1.0 3.0 6.0 3.0 4.0 8.0 1.0 5.0 9.0 0.0 3.0 5.0 -436.0 5.0 2.0 2.0 2.0 10.0 4.0 7.0 7.0 3.0 7.0 1.0 
9.0 4.0 5.0 2.0 4.0 0.0 8.0 9.0 10.0 9.0 6.0 10.0 8.0 1.0 8.0 2.0 6.0 7.0 4.0 3.0 4.0 4.0 5.0 0.0 5.0 4.0 5.0 5.0 2.0 5.0 10.0 1.0 2.0 10.0 3.0 8.0 8.0 5.0 4.0 7.0 2.0 9.0 8.0 8.0 3.0 8.0 4.0 10.0 5.0 6.0 1.0 4.0 5.0 1.0 9.0 0.0 3.0 9.0 0.0 8.0 1.0 1.0 9.0 0.0 2.0 7.0 8.0 8.0 7.0 2.0 0.0 3.0 0.0 6.0 10.0 9.0 4.0 7.0 5.0 -464.0 8.0 8.0 0.0 1.0 1.0 10.0 8.0 9.0 9.0 6.0 
6.0 0.0 3.0 6.0 7.0 2.0 1.0 9.0 8.0 2.0 9.0 6.0 8.0 6.0 3.0 5.0 9.0 9.0 7.0 7.0 1.0 2.0 0.0 7.0 3.0 6.0 0.0 3.0 5.0 4.0 0.0 9.0 6.0 1.0 8.0 0.0 10.0 3.0 2.0 5.0 3.0 9.0 8.0 7.0 2.0 9.0 6.0 4.0 10.0 1.0 6.0 0.0 0.0 0.0 8.0 8.0 3.0 2.0 8.0 4.0 2.0 8.0 7.0 2.0 5.0 10.0 10.0 10.0 8.0 0.0 3.0 10.0 1.0 0.0 7.0 4.0 5.0 7.0 2.0 8.0 -445.0 0.0 9.0 2.0 9.0 4.0 7.0 9.0 0.0 10.0 
8.0 0.0 7.0 2.0 7.0 0.0 7.0 7.0 9.0 5.0 5.0 1.0 9.0 8.0 3.0 7.0 2.0 3.0 3.0 2.0 4.0 1.0 7.0 5.0 10.0 2.0 10.0 10.0 2.0 9.0 4.0 5.0 10.0 0.0 3.0 1.0 1.0 6.0 8.0 5.0 6.0 2.0 6.0 3.0 0.0 3.0 0.0 9.0 9.0 4.0 0.0 9.0 9.0 2.0 2.0 9.0 7.0 5.0 1.0 5.0 6.0 5.0 3.0 3.0 10.0 5.0 6.0 3.0 4.0 10.0 5.0 7.0 10.0 1.0 10.0 8.0 0.0 8.0 2.0 8.0 0.0 -438.0 5.0 0.0 9.0 9.0 4.0 1.0 3.0 4.0 
6.0 0.0 2.0 2.0 1.0 8.0 6.0 2.0 10.0 9.0 6.0 0.0 2.0 7.0 2.0 1.0 2.0 6.0 2.0 6.0 4.0 6.0 6.0 1.0 6.0 3.0 3.0 6.0 4.0 0.0 10.0 9.0 10.0 8.0 5.0 2.0 6.0 3.0 8.0 0.0 6.0 9.0 0.0 9.0 10.0 5.0 10.0 3.0 1.0 0.0 9.0 5.0 2.0 4.0 9.0 10.0 2.0 5.0 4.0 10.0 7.0 10.0 5.0 0.0 2.0 7.0 1.0 1.0 8.0 6.0 1.0 8.0 4.0 8.0 0.0 1.0 8.0 0.0 2.0 0.0 9.0 5.0 -420.0 6.0 2.0 9.0 1.0 4.0 10.0 2.0 
2.0 0.0 8.0 1.0 4.0 10.0 6.0 10.0 9.0 0.0 1.0 7.0 3.0 1.0 7.0 7.0 2.0 3.0 5.0 10.0 4.0 5.0 5.0 5.0 2.0 6.0 7.0 10.0 10.0 7.0 8.0 9.0 4.0 0.0 1.0 0.0 9.0 10.0 4.0 0.0 10.0 2.0 1.0 9.0 10.0 6.0 9.0 9.0 1.0 8.0 6.0 3.0 5.0 1.0 10.0 4.0 8.0 8.0 4.0 1.0 7.0 7.0 2.0 7.0 2.0 10.0 6.0 7.0 3.0 8.0 6.0 4.0 2.0 3.0 10.0 9.0 0.0 4.0 10.0 1.0 2.0 0.0 6.0 -455.0 1.0 5.0 5.0 3.0 0.0 8.0 
5.0 0.0 7.0 0.0 7.0 10.0 0.0 4.0 7.0 5.0 2.0 2.0 3.0 9.0 3.0 6.0 6.0 9.0 5.0 3.0 8.0 1.0 3.0 4.0 10.0 7.0 6.0 6.0 9.0 8.0 8.0 2.0 3.0 7.0 5.0 5.0 2.0 9.0 8.0 2.0 7.0 4.0 1.0 4.0 10.0 4.0 4.0 10.0 6.0 1.0 6.0 5.0 5.0 6.0 6.0 10.0 2.0 6.0 9.0 4.0 7.0 6.0 5.0 4.0 8.0 8.0 5.0 5.0 8.0 0.0 4.0 5.0 3.0 9.0 9.0 5.0 10.0 6.0 4.0 1.0 9.0 9.0 2.0 1.0 -481.0 0.0 10.0 4.0 9.0 9.0 
7.0 0.0 1.0 6.0 3.0 2.0 3.0 4.0 1.0 9.0 7.0 8.0 10.0 5.0 4.0 8.0 1.0 10.0 4.0 8.0 7.0 4.0 7.0 8.0 6.0 10.0 1.0 4.0 7.0 1.0 4.0 7.0 6.0 3.0 2.0 10.0 7.0 0.0 0.0 8.0 9.0 4.0 6.0 10.0 4.0 7.0 6.0 6.0 8.0 8.0 8.0 10.0 10.0 1.0 3.0 3.0 6.0 2.0 7.0 9.0 5.0 0.0 3.0 2.0 5.0 1.0 5.0 0.0 8.0 10.0 4.0 1.0 0.0 0.0 4.0 4.0 0.0 10.0 7.0 10.0 4.0 9.0 9.0 5.0 0.0 -449.0 3.0 2.0 8.0 0.0 
2.0 0.0 10.0 2.0 0.0 5.0 0.0 7.0 9.0 10.0 2.0 8.0 6.0 4.0 3.0 7.0 5.0 9.0 9.0 9.0 2.0 4.0 6.0 3.0 2.0 5.0 5.0 6.0 10.0 6.0 0.0 8.0 3.0 5.0 3.0 8.0 2.0 0.0 5.0 10.0 2.0 6.0 2.0 10.0 10.0 9.0 0.0 1.0 3.0 8.0 9.0 1.0 7.0 3.0 2.0 6.0 0.0 2.0 7.0 5.0 9.0 7.0 4.0 1.0 5.0 7.0 2.0 5.0 6.0 9.0 2.0 9.0 7.0 10.0 5.0 1.0 2.0 0.0 7.0 8.0 7.0 4.0 1.0 5.0 10.0 3.0 -442.0 6.0 2.0 5.0 
4.0 0.0 2.0 0.0 7.0 3.0 6.0 3.0 0.0 9.0 8.0 2.0 2.0 7.0 0.0 0.0 4.0 6.0 10.0 7.0 6.0 10.0 0.0 1.0 3.0 9.0 7.0 0.0 8.0 0.0 3.0 2.0 3.0 3.0 10.0 0.0 9.0 1.0 0.0 5.0 4.0 1.0 1.0 10.0 10.0 3.0 0.0 5.0 10.0 3.0 8.0 1.0 8.0 1.0 4.0 1.0 8.0 1.0 6.0 8.0 6.0 1.0 7.0 1.0 3.0 6.0 1.0 4.0 10.0 1.0 7.0 0.0 6.0 1.0 7.0 9.0 0.0 6.0 3.0 9.0 9.0 1.0 4.0 3.0 4.0 2.0 6.0 -383.0 4.0 9.0 
10.0 0.0 3.0 6.0 10.0 4.0 3.0 5.0 3.0 2.0 6.0 10.0 6.0 1.0 3.0 9.0 4.0 10.0 4.0 9.0 7.0 7.0 4.0 5.0 1.0 9.0 8.0 4.0 10.0 9.0 5.0 8.0 9.0 4.0 5.0 2.0 9.0 1.0 4.0 2.0 9.0 10.0 6.0 6.0 10.0 10.0 4.0 5.0 1.0 2.0 1.0 3.0 0.0 5.0 5.0 5.0 4.0 4.0 1.0 0.0 4.0 10.0 4.0 10.0 9.0 4.0 2.0 7.0 9.0 8.0 2.0 1.0 0.0 0.0 2.0 4.0 7.0 7.0 7.0 9.0 0.0 3.0 10.0 0.0 9.0 8.0 2.0 4.0 -462.0 8.0 
1.0 0.0 5.0 1.0 3.0 10.0 2.0 3.0 8.0 6.0 5.0 3.0 1.0 7.0 2.0 2.0 0.0 8.0 6.0 6.0 2.0 0.0 1.0 7.0 1.0 3.0 4.0 0.0 8.0 7.0 10.0 1.0 9.0 10.0 8.0 4.0 4.0 10.0 0.0 5.0 4.0 8.0 6.0 8.0 6.0 10.0 1.0 8.0 3.0 2.0 0.0 7.0 3.0 3.0 3.0 4.0 5.0 2.0 5.0 5.0 3.0 5.0 9.0 9.0 4.0 4.0 10.0 1.0 7.0 0.0 8.0 3.0 7.0 8.0 7.0 6.0 7.0 7.0 1.0 6.0 10.0 4.0 2.0 8.0 9.0 0.0 5.0 9.0 8.0 -433.0 

